Selected objective sense:  MINIMIZE
Selected objective  name:  OBJ
Selected RHS        name:  RHS1
Selected bound      name:  BND1
CPXPARAM_Preprocessing_Presolve                  0
CPXPARAM_LPMethod                                4
CPXPARAM_Threads                                 1
CPXPARAM_SolutionType                            2
CPXPARAM_TimeLimit                               3600
Tried aggregator 0 times.
Reduced presolve eliminated 277 rows and 277 columns.
Reduced LP has 32515 rows, 191762 columns, and 4314109 nonzeros.
Presolve time = 1.05 sec. (510.78 ticks)
Parallel mode: none, using 1 thread for barrier
Number of nonzeros in lower triangle of A*A' = 738516
Using Approximate Minimum Degree ordering
Total time for automatic ordering = 0.11 sec. (164.19 ticks)
Summary statistics for Cholesky factor:
  Rows in Factor            = 32515
  Integer space required    = 770203
  Total non-zeros in factor = 771284
  Total FP ops to factor    = 18536754
 Itn      Primal Obj        Dual Obj  Prim Inf Upper Inf  Dual Inf Inf Ratio
   0   4.2200324e+08  -3.0524514e+07  1.92e+09  0.00e+00  9.62e+06  1.00e+00
   1   1.0191931e+08  -9.2822527e+06  3.45e+08  7.26e-11  6.33e+06  5.42e-03
   2   9.4113877e+07  -2.1082960e+07  3.25e+08  1.01e-10  2.98e+06  2.17e-03
   3   6.6585470e+07  -2.0954275e+07  2.33e+08  8.77e-11  2.96e+06  1.80e-03
   4   3.0953037e+07  -6.9066772e+06  1.03e+08  9.93e-11  1.20e+06  6.68e-04
   5   1.8888290e+06  -2.7336446e+06  1.10e+07  6.60e-11  2.60e+05  4.35e-03
   6   3.8787396e+05  -2.2665169e+06  3.50e+06  4.26e-11  2.10e+05  1.08e-02
   7   7.5238138e+04  -7.3699701e+05  2.83e+05  2.92e-11  7.11e+04  5.33e-02
   8   5.2762208e+04  -1.0426768e+05  5.48e+04  3.24e-11  1.37e+04  2.78e-01
   9   4.7353249e+04   3.0384307e+04  8.03e+02  1.76e-11  1.53e+03  2.62e+00
  10   4.6974467e+04   3.9218370e+04  4.54e+02  4.47e-11  6.91e+02  8.40e+00
  11   4.6527843e+04   4.4854904e+04  1.15e+02  2.09e-11  1.47e+02  4.57e+01
  12   4.6415043e+04   4.5616644e+04  6.28e+01  4.31e-11  6.83e+01  1.15e+02
  13   4.6407288e+04   4.5984378e+04  6.04e+01  2.71e-11  2.60e+01  4.18e+02
  14   4.6342714e+04   4.6104641e+04  4.46e+01  4.38e-11  8.28e+00  1.40e+03
  15   4.6306420e+04   4.6131318e+04  3.45e+01  4.23e-11  5.43e+00  1.89e+03
  16   4.6273014e+04   4.6162848e+04  2.46e+01  6.61e-11  2.50e+00  3.22e+03
  17   4.6246375e+04   4.6184964e+04  1.60e+01  4.20e-11  8.71e-01  6.64e+03
  18   4.6239652e+04   4.6195337e+04  1.38e+01  3.73e-11  2.10e-01  1.47e+04
  19   4.6234311e+04   4.6197140e+04  1.20e+01  5.22e-11  4.18e-02  2.23e+04
  20   4.6223164e+04   4.6198754e+04  8.15e+00  4.07e-11  1.55e-02  3.22e+04
  21   4.6222872e+04   4.6199181e+04  8.05e+00  4.81e-11  3.87e-03  3.24e+04
  22   4.6215646e+04   4.6200300e+04  5.35e+00  9.24e-11  1.88e-03  5.40e+04
  23   4.6215385e+04   4.6200419e+04  5.25e+00  8.39e-11  4.69e-04  5.17e+04
  24   4.6211000e+04   4.6200663e+04  3.57e+00  8.87e-11  3.83e-04  6.10e+04
  25   4.6208872e+04   4.6200991e+04  2.80e+00  8.33e-11  9.57e-05  7.67e+04
  26   4.6205906e+04   4.6201395e+04  1.65e+00  3.56e-11  3.82e-05  1.26e+05
  27   4.6205884e+04   4.6201582e+04  1.64e+00  5.27e-11  9.54e-06  1.76e+05
  28   4.6205515e+04   4.6201640e+04  1.49e+00  4.98e-11  5.81e-06  2.04e+05
  29   4.6205069e+04   4.6201647e+04  1.32e+00  3.69e-11  1.45e-06  2.05e+05
  30   4.6203637e+04   4.6201687e+04  7.59e-01  4.15e-11  4.40e-07  2.31e+05
  31   4.6203200e+04   4.6201825e+04  5.71e-01  4.18e-11  1.10e-07  4.09e+05
  32   4.6203086e+04   4.6201842e+04  5.20e-01  3.41e-11  8.95e-08  4.41e+05
  33   4.6203074e+04   4.6201860e+04  5.15e-01  6.00e-11  7.17e-08  4.81e+05
  34   4.6203072e+04   4.6201872e+04  5.14e-01  7.42e-11  6.04e-08  5.10e+05
  35   4.6203068e+04   4.6201875e+04  5.12e-01  4.24e-11  5.66e-08  5.20e+05
  36   4.6203030e+04   4.6201878e+04  4.95e-01  4.32e-11  5.34e-08  5.29e+05
  37   4.6203025e+04   4.6201902e+04  4.93e-01  1.14e-10  2.68e-08  6.28e+05
  38   4.6202954e+04   4.6201909e+04  4.61e-01  7.62e-11  1.73e-08  6.66e+05
  39   4.6202879e+04   4.6201940e+04  4.26e-01  8.84e-11  9.06e-09  9.35e+05
  40   4.6202878e+04   4.6201936e+04  4.25e-01  1.14e-10  2.29e-09  8.54e+05
  41   4.6202503e+04   4.6201934e+04  2.57e-01  8.77e-11  5.70e-10  8.51e+05
  42   4.6202495e+04   4.6201966e+04  2.53e-01  1.33e-10  2.24e-10  1.41e+06
  43   4.6202423e+04   4.6201971e+04  2.18e-01  7.63e-11  1.22e-10  1.51e+06
  44   4.6202286e+04   4.6201979e+04  1.50e-01  4.19e-11  9.16e-11  1.78e+06
  45   4.6202277e+04   4.6201991e+04  1.46e-01  5.25e-11  9.08e-11  2.62e+06
  46   4.6202204e+04   4.6201995e+04  1.06e-01  1.14e-10  9.61e-11  3.00e+06
  47   4.6202199e+04   4.6202000e+04  1.04e-01  7.71e-11  8.17e-11  3.85e+06
  48   4.6202173e+04   4.6202001e+04  8.97e-02  4.89e-11  8.32e-11  3.95e+06
  49   4.6202172e+04   4.6202002e+04  8.96e-02  4.34e-11  9.73e-11  4.02e+06
  50   4.6202172e+04   4.6202002e+04  8.96e-02  6.63e-11  9.87e-11  4.03e+06
  51   4.6202172e+04   4.6202002e+04  8.93e-02  6.69e-11  9.63e-11  4.33e+06
  52   4.6202160e+04   4.6202003e+04  8.31e-02  1.04e-10  8.86e-11  4.51e+06
  53   4.6202107e+04   4.6202005e+04  5.40e-02  8.72e-11  7.41e-11  4.82e+06
  54   4.6202107e+04   4.6202006e+04  5.40e-02  6.03e-11  1.09e-10  5.14e+06
  55   4.6202106e+04   4.6202006e+04  5.39e-02  4.84e-11  6.45e-11  5.28e+06
  56   4.6202106e+04   4.6202005e+04  5.38e-02  4.53e-11  8.75e-11  5.31e+06
  57   4.6202106e+04   4.6202005e+04  5.38e-02  5.50e-11  1.01e-10  5.38e+06
  58   4.6202106e+04   4.6202006e+04  5.38e-02  6.98e-11  8.87e-11  5.39e+06
  59   4.6202106e+04   4.6202007e+04  5.38e-02  7.46e-11  1.04e-10  5.48e+06
  60   4.6202106e+04   4.6202006e+04  5.37e-02  6.48e-11  1.26e-10  5.74e+06
  61   4.6202080e+04   4.6202008e+04  3.88e-02  4.69e-11  9.40e-11  6.50e+06
  62   4.6202080e+04   4.6202009e+04  3.86e-02  5.73e-11  9.27e-11  6.72e+06
  63   4.6202079e+04   4.6202010e+04  3.82e-02  5.82e-11  1.27e-10  7.66e+06
  64   4.6202079e+04   4.6202012e+04  3.82e-02  7.68e-11  1.09e-10  1.01e+07
  65   4.6202079e+04   4.6202012e+04  3.82e-02  8.46e-11  1.12e-10  1.01e+07
  66   4.6202079e+04   4.6202012e+04  3.81e-02  7.68e-11  1.53e-10  1.02e+07
  67   4.6202075e+04   4.6202012e+04  3.55e-02  7.13e-11  2.00e-10  1.02e+07
  68   4.6202074e+04   4.6202012e+04  3.54e-02  6.77e-11  1.59e-10  1.03e+07
  69   4.6202074e+04   4.6202013e+04  3.54e-02  1.25e-10  1.18e-10  1.13e+07
  70   4.6202074e+04   4.6202013e+04  3.54e-02  9.24e-11  1.00e-10  1.13e+07
  71   4.6202074e+04   4.6202013e+04  3.54e-02  1.01e-10  1.00e-10  1.14e+07
  72   4.6202074e+04   4.6202013e+04  3.54e-02  1.02e-10  1.53e-10  1.15e+07
  73   4.6202074e+04   4.6202013e+04  3.54e-02  1.12e-10  1.42e-10  1.15e+07
  74   4.6202066e+04   4.6202014e+04  3.02e-02  1.48e-10  9.95e-11  1.22e+07
  75   4.6202065e+04   4.6202013e+04  3.01e-02  1.02e-10  8.36e-11  1.43e+07
  76   4.6202065e+04   4.6202014e+04  3.00e-02  1.30e-10  8.62e-11  1.49e+07
  77   4.6202048e+04   4.6202015e+04  1.98e-02  9.86e-11  8.95e-11  1.52e+07
  78   4.6202048e+04   4.6202015e+04  1.92e-02  8.11e-11  9.85e-11  1.82e+07
  79   4.6202048e+04   4.6202015e+04  1.92e-02  1.47e-10  1.52e-10  1.85e+07
  80   4.6202047e+04   4.6202016e+04  1.92e-02  7.98e-11  2.09e-10  1.85e+07
  81   4.6202047e+04   4.6202015e+04  1.92e-02  1.14e-10  1.83e-10  1.86e+07
  82   4.6202032e+04   4.6202015e+04  9.44e-03  5.43e-11  1.69e-10  1.91e+07
  83   4.6202032e+04   4.6202015e+04  9.44e-03  8.01e-11  1.48e-10  1.93e+07
  84   4.6202032e+04   4.6202017e+04  9.42e-03  8.89e-11  1.08e-10  2.94e+07
  85   4.6202030e+04   4.6202017e+04  7.84e-03  6.12e-11  1.09e-10  3.39e+07
  86   4.6202030e+04   4.6202017e+04  7.80e-03  6.62e-11  9.17e-11  3.60e+07
  87   4.6202030e+04   4.6202018e+04  7.80e-03  7.11e-11  8.87e-11  3.61e+07
  88   4.6202030e+04   4.6202018e+04  7.79e-03  6.76e-11  8.57e-11  3.61e+07
  89   4.6202030e+04   4.6202017e+04  7.79e-03  7.55e-11  8.85e-11  3.61e+07
  90   4.6202030e+04   4.6202017e+04  7.79e-03  7.09e-11  9.71e-11  3.61e+07
  91   4.6202030e+04   4.6202017e+04  7.79e-03  6.71e-11  9.95e-11  3.61e+07
  92   4.6202030e+04   4.6202018e+04  7.77e-03  6.83e-11  1.13e-10  3.65e+07
  93   4.6202030e+04   4.6202018e+04  7.77e-03  7.50e-11  1.20e-10  3.66e+07
  94   4.6202030e+04   4.6202018e+04  7.77e-03  8.59e-11  1.20e-10  3.66e+07
  95   4.6202030e+04   4.6202017e+04  7.77e-03  7.21e-11  1.17e-10  3.66e+07
  96   4.6202026e+04   4.6202018e+04  4.99e-03  1.22e-10  1.01e-10  4.03e+07
  97   4.6202026e+04   4.6202018e+04  4.99e-03  8.79e-11  1.07e-10  4.03e+07
  98   4.6202026e+04   4.6202018e+04  4.99e-03  7.10e-11  1.11e-10  4.04e+07
  99   4.6202026e+04   4.6202018e+04  4.95e-03  7.97e-11  1.09e-10  4.11e+07
 100   4.6202026e+04   4.6202018e+04  4.92e-03  6.70e-11  9.45e-11  5.25e+07
 101   4.6202026e+04   4.6202018e+04  4.91e-03  9.55e-11  1.00e-10  5.32e+07
 102   4.6202026e+04   4.6202018e+04  4.91e-03  6.09e-11  1.03e-10  5.39e+07
 103   4.6202026e+04   4.6202018e+04  4.91e-03  6.56e-11  1.21e-10  5.39e+07
 104   4.6202026e+04   4.6202018e+04  4.91e-03  9.53e-11  1.12e-10  5.40e+07
 105   4.6202026e+04   4.6202018e+04  4.91e-03  8.91e-11  1.20e-10  5.42e+07
 106   4.6202026e+04   4.6202018e+04  4.88e-03  8.59e-11  1.22e-10  5.71e+07
 107   4.6202026e+04   4.6202018e+04  4.88e-03  8.18e-11  1.22e-10  5.71e+07
 108   4.6202026e+04   4.6202018e+04  4.87e-03  1.15e-10  1.17e-10  5.79e+07
 109   4.6202026e+04   4.6202018e+04  4.87e-03  8.14e-11  1.17e-10  5.79e+07
 110   4.6202026e+04   4.6202018e+04  4.87e-03  6.03e-11  1.65e-10  6.02e+07
 111   4.6202026e+04   4.6202018e+04  4.87e-03  1.01e-10  1.46e-10  6.24e+07
 112   4.6202025e+04   4.6202018e+04  4.54e-03  6.82e-11  2.52e-10  7.00e+07
 113   4.6202025e+04   4.6202019e+04  4.54e-03  7.46e-11  2.22e-10  7.03e+07
 114   4.6202025e+04   4.6202019e+04  4.47e-03  7.72e-11  1.29e-10  8.10e+07
 115   4.6202025e+04   4.6202019e+04  4.46e-03  9.47e-11  1.19e-10  8.64e+07
 116   4.6202025e+04   4.6202019e+04  4.46e-03  9.71e-11  1.17e-10  8.65e+07
 117   4.6202025e+04   4.6202019e+04  4.46e-03  9.45e-11  1.18e-10  8.66e+07
 118   4.6202025e+04   4.6202019e+04  4.46e-03  9.28e-11  1.16e-10  8.66e+07
 119   4.6202025e+04   4.6202019e+04  4.46e-03  9.87e-11  1.26e-10  9.26e+07
 120   4.6202025e+04   4.6202019e+04  4.45e-03  9.74e-11  1.01e-10  1.10e+08
 121   4.6202025e+04   4.6202019e+04  4.44e-03  1.06e-10  1.03e-10  1.12e+08
 122   4.6202025e+04   4.6202019e+04  4.44e-03  1.11e-10  1.04e-10  1.12e+08
 123   4.6202025e+04   4.6202019e+04  4.44e-03  1.08e-10  1.07e-10  1.12e+08
 124   4.6202025e+04   4.6202019e+04  4.12e-03  1.00e-10  1.02e-10  1.16e+08
 125   4.6202025e+04   4.6202019e+04  4.12e-03  1.22e-10  1.23e-10  1.16e+08
 126   4.6202025e+04   4.6202019e+04  4.09e-03  1.11e-10  8.87e-11  1.22e+08
 127   4.6202025e+04   4.6202019e+04  3.86e-03  8.97e-11  1.07e-10  1.24e+08
 128   4.6202025e+04   4.6202019e+04  3.86e-03  1.31e-10  1.45e-10  1.24e+08
 129   4.6202024e+04   4.6202019e+04  3.82e-03  1.11e-10  1.36e-10  1.27e+08
 130   4.6202024e+04   4.6202019e+04  3.22e-03  1.04e-10  1.45e-10  1.34e+08
 131   4.6202024e+04   4.6202019e+04  3.12e-03  9.31e-11  1.36e-10  1.35e+08
 132   4.6202022e+04   4.6202019e+04  2.21e-03  7.81e-11  1.24e-10  1.53e+08
 133   4.6202022e+04   4.6202019e+04  2.21e-03  1.29e-10  1.30e-10  1.54e+08
 134   4.6202022e+04   4.6202019e+04  2.21e-03  7.44e-11  1.10e-10  1.54e+08
 135   4.6202022e+04   4.6202019e+04  2.21e-03  7.44e-11  1.33e-10  1.54e+08
 136   4.6202022e+04   4.6202019e+04  2.18e-03  7.20e-11  1.17e-10  2.39e+08
 137   4.6202022e+04   4.6202019e+04  2.01e-03  6.36e-11  9.60e-11  2.46e+08
 138   4.6202022e+04   4.6202019e+04  2.00e-03  7.47e-11  9.98e-11  2.51e+08
 139   4.6202022e+04   4.6202019e+04  2.00e-03  1.14e-10  1.12e-10  2.51e+08
 140   4.6202021e+04   4.6202019e+04  1.25e-03  6.91e-11  9.69e-11  2.63e+08
 141   4.6202021e+04   4.6202019e+04  1.25e-03  6.62e-11  1.38e-10  2.67e+08
 142   4.6202021e+04   4.6202019e+04  1.25e-03  1.66e-10  1.46e-10  2.72e+08
 143   4.6202021e+04   4.6202019e+04  1.24e-03  1.53e-10  1.24e-10  2.80e+08
 144   4.6202021e+04   4.6202019e+04  1.24e-03  1.37e-10  1.09e-10  2.85e+08
 145   4.6202021e+04   4.6202019e+04  1.23e-03  1.06e-10  1.34e-10  3.13e+08
 146   4.6202021e+04   4.6202019e+04  1.21e-03  1.73e-10  1.27e-10  3.58e+08
 147   4.6202021e+04   4.6202020e+04  1.21e-03  1.87e-10  1.16e-10  4.95e+08
 148   4.6202020e+04   4.6202020e+04  1.78e-04  7.02e-11  8.45e-11  7.50e+08
Barrier time = 33.89 sec. (55507.69 ticks)

Total time on 1 threads = 33.89 sec. (55507.69 ticks)
Solve time: 33.886406914
Barrier iterations: 148
